/*********************************************
    * Lab01 - simple
    * Author: Coso
    * Creation Date: Mar, 2019
    *********************************************/
instance_name = "small_instance_12_simple";

d = 2;
r = 3;

SCj = [76 82];
Dk = [51 44 28];

Cjk = [[87 43 45]
 [59 79 49]];
